NAME          COPTPROB
OBJSENSE
  MIN
ROWS
 N  __OBJ___
 L  C2      
 L  C9      
 L  C22     
 L  C31     
 L  C53     
 L  C61     
 L  C73     
 L  C76     
 L  C96     
 L  C106    
 L  C110    
 L  C127    
 L  C133    
 L  C149    
 L  C151    
 L  C159    
 L  C162    
 L  C164    
 L  C167    
 L  C183    
 L  C191    
 L  C195    
 L  C197    
COLUMNS
    MARKER    'MARKER'                 'INTORG'
    x24       __OBJ___  7
    x24       C2        -1
    x24       C106      -1
    x251      __OBJ___  69
    x251      C2        -1
    x251      C96       -1
    x347      __OBJ___  132
    x347      C31       -1
    x347      C191      -1
    x363      __OBJ___  46
    x363      C73       -1
    x363      C162      -1
    x368      __OBJ___  65
    x368      C96       -1
    x368      C197      -1
    x490      __OBJ___  54
    x490      C9        -1
    x490      C110      -1
    x601      __OBJ___  68
    x601      C53       -1
    x601      C76       -1
    x643      __OBJ___  147
    x643      C22       -1
    x643      C76       -1
    x663      __OBJ___  170
    x663      C127      -1
    x663      C195      -1
    x668      __OBJ___  17
    x668      C183      -1
    x771      __OBJ___  145
    x771      C22       -1
    x771      C151      -1
    x810      __OBJ___  73
    x810      C61       -1
    x810      C167      -1
    x860      __OBJ___  126
    x860      C164      -1
    x869      __OBJ___  33
    x869      C61       -1
    x869      C133      -1
    x938      __OBJ___  190
    x938      C53       -1
    x938      C164      -1
    x946      __OBJ___  113
    x946      C151      -1
    x946      C183      -1
    x978      __OBJ___  97
    x978      C195      -1
    x1133     __OBJ___  60
    x1133     C106      -1
    x1133     C159      -1
    x1135     __OBJ___  68
    x1135     C31       -1
    x1135     C73       -1
    x1192     __OBJ___  221
    x1192     C164      -1
    x1192     C195      -1
    x1225     __OBJ___  96
    x1225     C191      -1
    x1268     __OBJ___  51
    x1268     C110      -1
    x1268     C149      -1
    x1306     __OBJ___  147
    x1306     C9        -1
    x1306     C127      -1
    x1390     __OBJ___  133
    x1390     C22       -1
    x1390     C191      -1
    x1422     __OBJ___  53
    x1422     C162      -1
    x1422     C197      -1
    x1435     __OBJ___  34
    x1435     C133      -1
    x1435     C149      -1
    x1472     __OBJ___  59
    x1472     C159      -1
    x1472     C183      -1
    x1567     __OBJ___  66
    x1567     C76       -1
    x1585     __OBJ___  21
    x1585     C61       -1
    x1596     __OBJ___  69
    x1596     C2        -1
    x1596     C167      -1
    MARKER    'MARKER'                 'INTEND'
RHS
    RHS       __OBJ___  -6790
    RHS       C2        -1
    RHS       C9        -1
    RHS       C22       -1
    RHS       C31       -1
    RHS       C53       -1
    RHS       C61       -1
    RHS       C73       -1
    RHS       C76       -1
    RHS       C96       -1
    RHS       C106      -1
    RHS       C110      -1
    RHS       C127      -1
    RHS       C133      -1
    RHS       C149      -1
    RHS       C151      -1
    RHS       C159      -1
    RHS       C162      -1
    RHS       C164      -1
    RHS       C167      -1
    RHS       C183      -1
    RHS       C191      -1
    RHS       C195      -1
    RHS       C197      -1
BOUNDS
 UP BOUND     x24       1
 UP BOUND     x251      1
 UP BOUND     x347      1
 UP BOUND     x363      1
 UP BOUND     x368      1
 UP BOUND     x490      1
 UP BOUND     x601      1
 UP BOUND     x643      1
 UP BOUND     x663      1
 UP BOUND     x668      1
 UP BOUND     x771      1
 UP BOUND     x810      1
 UP BOUND     x860      1
 UP BOUND     x869      1
 UP BOUND     x938      1
 UP BOUND     x946      1
 UP BOUND     x978      1
 UP BOUND     x1133     1
 UP BOUND     x1135     1
 UP BOUND     x1192     1
 UP BOUND     x1225     1
 UP BOUND     x1268     1
 UP BOUND     x1306     1
 UP BOUND     x1390     1
 UP BOUND     x1422     1
 UP BOUND     x1435     1
 UP BOUND     x1472     1
 UP BOUND     x1567     1
 UP BOUND     x1585     1
 UP BOUND     x1596     1
ENDATA
